1 1 0 1 1 1 0 1 0 1 1 
0 15 22 8 7 18 19 19 40 37 8 
15 0 27 6 25 33 8 11 33 29 28 
22 27 0 21 16 17 20 28 33 5 15 
8 6 21 0 15 18 14 19 14 20 33 
7 25 16 15 0 4 28 10 30 21 38 
18 33 17 18 4 0 31 4 34 19 8 
19 8 20 14 28 31 0 25 16 40 27 
19 11 28 19 10 4 25 0 10 29 38 
40 33 33 14 30 34 16 10 0 35 36 
37 29 5 20 21 19 40 29 35 0 5 
8 28 15 33 38 8 27 38 36 5 0 
5 4
1P 4P 2P 7B 9B 8P 6P 5P 3B 10P 11P = 90